output ["      ",show(A),"  ",show(B),"  ",show(C),"\n","      ",show(D),"  ",show(E),"  ",show(F),"  ",show(G),"\n","      ",show(H),"  ",show(I),"  ",show(J),"  ",show(K),"  ",show(L),"\n","      ",show(M),"  ",show(N),"  ",show(O),"  ",show(P),"\n","      ",show(Q),"  ",show(R),"  ",show(S),"\n"];
int: A;
int: B;
int: C;
int: D;
int: E;
int: F;
int: G;
int: H;
int: I;
int: J;
int: K;
int: L;
int: M;
int: N;
int: O;
int: P;
int: Q;
int: R;
int: S;
